1218153
79,47,20,12,92,95,61,18,86,72,75,49,17,6,87,64,59,41,77,107,32,105,54,11,35,27,7,39,67,104,98,70,46,96,103,21,63,22,14,73,3,78,66,91,55,102,29,5,60,84,42,94,31,43,19,62,2,82,24,15,106,93,45,80,1,58,83,50,28,51,33,44,81,0,34,100,97,4,89,23,108,9,65,76,8,36,25,40,37,71,74,56,85,26,68,69,13,38,30,48,10,88,90,57,53,101,99,52,16
